(set-logic ALL)
(declare-const days_VAR Int)
(declare-const absent_VAR Int)
(declare-const late_VAR Int)
(assert (= late_VAR 3))
(check-sat)
(get-value (days_VAR))
(get-value (absent_VAR))
(get-value (late_VAR))
